NAME        pl_mi_only_bounds
ROWS
 N  obj
 L  c1
COLUMNS
    x1        obj       1
    x1        c1        1
    x2        obj       1
    x2        c1        1
RHS
    RHS       c1        10
BOUNDS
 PL BOUND     x1
 MI BOUND     x2
ENDATA
